p cnf 386 460
1 -20 5 21 22 0
1 -20 5 21 -22 0
1 -20 5 -21 23 0
1 -20 5 -21 -23 0
8 -1 2 24 25 0
8 -1 2 24 -25 0
8 -1 2 -24 26 0
8 -1 2 -24 -26 0
3 -15 19 27 28 0
3 -15 19 27 -28 0
3 -15 19 -27 29 0
3 -15 19 -27 -29 0
-15 6 -13 30 31 0
-15 6 -13 30 -31 0
-15 6 -13 -30 32 0
-15 6 -13 -30 -32 0
9 -19 -13 33 34 0
9 -19 -13 33 -34 0
9 -19 -13 -33 35 0
9 -19 -13 -33 -35 0
3 20 17 36 37 0
3 20 17 36 -37 0
3 20 17 -36 38 0
3 20 17 -36 -38 0
-2 -11 8 39 40 0
-2 -11 8 39 -40 0
-2 -11 8 -39 41 0
-2 -11 8 -39 -41 0
16 13 -9 42 43 0
16 13 -9 42 -43 0
16 13 -9 -42 44 0
16 13 -9 -42 -44 0
-17 15 6 45 46 0
-17 15 6 45 -46 0
-17 15 6 -45 47 0
-17 15 6 -45 -47 0
3 -19 16 48 49 0
3 -19 16 48 -49 0
3 -19 16 -48 50 0
3 -19 16 -48 -50 0
5 14 -7 51 52 0
5 14 -7 51 -52 0
5 14 -7 -51 53 0
5 14 -7 -51 -53 0
-8 -14 19 54 55 0
-8 -14 19 54 -55 0
-8 -14 19 -54 56 0
-8 -14 19 -54 -56 0
-16 -6 17 57 58 0
-16 -6 17 57 -58 0
-16 -6 17 -57 59 0
-16 -6 17 -57 -59 0
15 -8 -9 60 61 0
15 -8 -9 60 -61 0
15 -8 -9 -60 62 0
15 -8 -9 -60 -62 0
7 -14 -9 63 64 0
7 -14 -9 63 -64 0
7 -14 -9 -63 65 0
7 -14 -9 -63 -65 0
2 -3 20 66 67 0
2 -3 20 66 -67 0
2 -3 20 -66 68 0
2 -3 20 -66 -68 0
18 12 7 69 70 0
18 12 7 69 -70 0
18 12 7 -69 71 0
18 12 7 -69 -71 0
16 17 -20 72 73 0
16 17 -20 72 -73 0
16 17 -20 -72 74 0
16 17 -20 -72 -74 0
17 -1 -2 75 76 0
17 -1 -2 75 -76 0
17 -1 -2 -75 77 0
17 -1 -2 -75 -77 0
-11 -10 -20 78 79 0
-11 -10 -20 78 -79 0
-11 -10 -20 -78 80 0
-11 -10 -20 -78 -80 0
-14 19 -20 81 82 0
-14 19 -20 81 -82 0
-14 19 -20 -81 83 0
-14 19 -20 -81 -83 0
20 -1 5 84 85 0
20 -1 5 84 -85 0
20 -1 5 -84 86 0
20 -1 5 -84 -86 0
9 -6 2 87 88 0
9 -6 2 87 -88 0
9 -6 2 -87 89 0
9 -6 2 -87 -89 0
2 -11 9 90 91 0
2 -11 9 90 -91 0
2 -11 9 -90 92 0
2 -11 9 -90 -92 0
-16 6 13 93 94 0
-16 6 13 93 -94 0
-16 6 13 -93 95 0
-16 6 13 -93 -95 0
-13 -20 -9 96 97 0
-13 -20 -9 96 -97 0
-13 -20 -9 -96 98 0
-13 -20 -9 -96 -98 0
-5 12 -9 99 100 0
-5 12 -9 99 -100 0
-5 12 -9 -99 101 0
-5 12 -9 -99 -101 0
7 16 -14 102 103 0
7 16 -14 102 -103 0
7 16 -14 -102 104 0
7 16 -14 -102 -104 0
-12 -18 -6 105 106 0
-12 -18 -6 105 -106 0
-12 -18 -6 -105 107 0
-12 -18 -6 -105 -107 0
9 -17 19 108 109 0
9 -17 19 108 -109 0
9 -17 19 -108 110 0
9 -17 19 -108 -110 0
-13 9 18 111 112 0
-13 9 18 111 -112 0
-13 9 18 -111 113 0
-13 9 18 -111 -113 0
-6 19 -10 114 115 0
-6 19 -10 114 -115 0
-6 19 -10 -114 116 0
-6 19 -10 -114 -116 0
-15 18 -19 117 118 0
-15 18 -19 117 -118 0
-15 18 -19 -117 119 0
-15 18 -19 -117 -119 0
10 16 -6 120 121 0
10 16 -6 120 -121 0
10 16 -6 -120 122 0
10 16 -6 -120 -122 0
-12 -4 -13 123 124 0
-12 -4 -13 123 -124 0
-12 -4 -13 -123 125 0
-12 -4 -13 -123 -125 0
5 8 16 126 127 0
5 8 16 126 -127 0
5 8 16 -126 128 0
5 8 16 -126 -128 0
6 -7 -14 129 130 0
6 -7 -14 129 -130 0
6 -7 -14 -129 131 0
6 -7 -14 -129 -131 0
-20 8 -9 132 133 0
-20 8 -9 132 -133 0
-20 8 -9 -132 134 0
-20 8 -9 -132 -134 0
-8 -11 -13 135 136 0
-8 -11 -13 135 -136 0
-8 -11 -13 -135 137 0
-8 -11 -13 -135 -137 0
-8 -5 4 138 139 0
-8 -5 4 138 -139 0
-8 -5 4 -138 140 0
-8 -5 4 -138 -140 0
-18 2 -11 141 142 0
-18 2 -11 141 -142 0
-18 2 -11 -141 143 0
-18 2 -11 -141 -143 0
-18 -8 -5 144 145 0
-18 -8 -5 144 -145 0
-18 -8 -5 -144 146 0
-18 -8 -5 -144 -146 0
-3 12 4 147 148 0
-3 12 4 147 -148 0
-3 12 4 -147 149 0
-3 12 4 -147 -149 0
9 17 14 150 151 0
9 17 14 150 -151 0
9 17 14 -150 152 0
9 17 14 -150 -152 0
2 -17 11 153 154 0
2 -17 11 153 -154 0
2 -17 11 -153 155 0
2 -17 11 -153 -155 0
-8 14 -9 156 157 0
-8 14 -9 156 -157 0
-8 14 -9 -156 158 0
-8 14 -9 -156 -158 0
18 -5 -19 159 160 0
18 -5 -19 159 -160 0
18 -5 -19 -159 161 0
18 -5 -19 -159 -161 0
18 19 -3 162 163 0
18 19 -3 162 -163 0
18 19 -3 -162 164 0
18 19 -3 -162 -164 0
-5 -18 -8 165 166 0
-5 -18 -8 165 -166 0
-5 -18 -8 -165 167 0
-5 -18 -8 -165 -167 0
-4 20 14 168 169 0
-4 20 14 168 -169 0
-4 20 14 -168 170 0
-4 20 14 -168 -170 0
-3 13 12 171 172 0
-3 13 12 171 -172 0
-3 13 12 -171 173 0
-3 13 12 -171 -173 0
-9 15 -1 174 175 0
-9 15 -1 174 -175 0
-9 15 -1 -174 176 0
-9 15 -1 -174 -176 0
9 -8 15 177 178 0
9 -8 15 177 -178 0
9 -8 15 -177 179 0
9 -8 15 -177 -179 0
-14 -15 -11 180 181 0
-14 -15 -11 180 -181 0
-14 -15 -11 -180 182 0
-14 -15 -11 -180 -182 0
-13 -5 -10 183 184 0
-13 -5 -10 183 -184 0
-13 -5 -10 -183 185 0
-13 -5 -10 -183 -185 0
-10 16 3 186 187 0
-10 16 3 186 -187 0
-10 16 3 -186 188 0
-10 16 3 -186 -188 0
-9 19 -6 189 190 0
-9 19 -6 189 -190 0
-9 19 -6 -189 191 0
-9 19 -6 -189 -191 0
-9 -17 -13 192 193 0
-9 -17 -13 192 -193 0
-9 -17 -13 -192 194 0
-9 -17 -13 -192 -194 0
11 -8 13 195 196 0
11 -8 13 195 -196 0
11 -8 13 -195 197 0
11 -8 13 -195 -197 0
17 13 8 198 199 0
17 13 8 198 -199 0
17 13 8 -198 200 0
17 13 8 -198 -200 0
-18 16 1 201 202 0
-18 16 1 201 -202 0
-18 16 1 -201 203 0
-18 16 1 -201 -203 0
7 19 11 204 205 0
7 19 11 204 -205 0
7 19 11 -204 206 0
7 19 11 -204 -206 0
-14 -5 -20 207 208 0
-14 -5 -20 207 -208 0
-14 -5 -20 -207 209 0
-14 -5 -20 -207 -209 0
3 5 -11 210 211 0
3 5 -11 210 -211 0
3 5 -11 -210 212 0
3 5 -11 -210 -212 0
2 17 1 213 214 0
2 17 1 213 -214 0
2 17 1 -213 215 0
2 17 1 -213 -215 0
5 4 -17 216 217 0
5 4 -17 216 -217 0
5 4 -17 -216 218 0
5 4 -17 -216 -218 0
-10 -8 16 219 220 0
-10 -8 16 219 -220 0
-10 -8 16 -219 221 0
-10 -8 16 -219 -221 0
8 19 5 222 223 0
8 19 5 222 -223 0
8 19 5 -222 224 0
8 19 5 -222 -224 0
16 6 -15 225 226 0
16 6 -15 225 -226 0
16 6 -15 -225 227 0
16 6 -15 -225 -227 0
-10 -14 17 228 229 0
-10 -14 17 228 -229 0
-10 -14 17 -228 230 0
-10 -14 17 -228 -230 0
-7 3 -4 231 232 0
-7 3 -4 231 -232 0
-7 3 -4 -231 233 0
-7 3 -4 -231 -233 0
-12 -4 2 234 235 0
-12 -4 2 234 -235 0
-12 -4 2 -234 236 0
-12 -4 2 -234 -236 0
-7 -10 14 237 238 0
-7 -10 14 237 -238 0
-7 -10 14 -237 239 0
-7 -10 14 -237 -239 0
-7 17 18 240 241 0
-7 17 18 240 -241 0
-7 17 18 -240 242 0
-7 17 18 -240 -242 0
-5 -17 6 243 244 0
-5 -17 6 243 -244 0
-5 -17 6 -243 245 0
-5 -17 6 -243 -245 0
2 17 -8 246 247 0
2 17 -8 246 -247 0
2 17 -8 -246 248 0
2 17 -8 -246 -248 0
4 1 -2 249 250 0
4 1 -2 249 -250 0
4 1 -2 -249 251 0
4 1 -2 -249 -251 0
14 -7 -2 252 253 0
14 -7 -2 252 -253 0
14 -7 -2 -252 254 0
14 -7 -2 -252 -254 0
-10 -5 -7 255 256 0
-10 -5 -7 255 -256 0
-10 -5 -7 -255 257 0
-10 -5 -7 -255 -257 0
-5 8 1 258 259 0
-5 8 1 258 -259 0
-5 8 1 -258 260 0
-5 8 1 -258 -260 0
2 19 -14 261 262 0
2 19 -14 261 -262 0
2 19 -14 -261 263 0
2 19 -14 -261 -263 0
-11 9 12 264 265 0
-11 9 12 264 -265 0
-11 9 12 -264 266 0
-11 9 12 -264 -266 0
-9 -16 -6 267 268 0
-9 -16 -6 267 -268 0
-9 -16 -6 -267 269 0
-9 -16 -6 -267 -269 0
-6 -19 -8 270 271 0
-6 -19 -8 270 -271 0
-6 -19 -8 -270 272 0
-6 -19 -8 -270 -272 0
-8 3 10 273 274 0
-8 3 10 273 -274 0
-8 3 10 -273 275 0
-8 3 10 -273 -275 0
-7 11 17 276 277 0
-7 11 17 276 -277 0
-7 11 17 -276 278 0
-7 11 17 -276 -278 0
-9 16 15 279 280 0
-9 16 15 279 -280 0
-9 16 15 -279 281 0
-9 16 15 -279 -281 0
-18 1 4 282 283 0
-18 1 4 282 -283 0
-18 1 4 -282 284 0
-18 1 4 -282 -284 0
4 19 1 285 286 0
4 19 1 285 -286 0
4 19 1 -285 287 0
4 19 1 -285 -287 0
-11 14 5 288 289 0
-11 14 5 288 -289 0
-11 14 5 -288 290 0
-11 14 5 -288 -290 0
8 14 -19 291 292 0
8 14 -19 291 -292 0
8 14 -19 -291 293 0
8 14 -19 -291 -293 0
294 295 297 301 309 0
294 295 297 301 -309 0
294 295 297 -301 310 0
294 295 297 -301 -310 0
294 295 -297 302 311 0
294 295 -297 302 -311 0
294 295 -297 -302 312 0
294 295 -297 -302 -312 0
294 -295 298 303 313 0
294 -295 298 303 -313 0
294 -295 298 -303 314 0
294 -295 298 -303 -314 0
294 -295 -298 304 315 0
294 -295 -298 304 -315 0
294 -295 -298 -304 316 0
294 -295 -298 -304 -316 0
-294 296 299 305 317 0
-294 296 299 305 -317 0
-294 296 299 -305 318 0
-294 296 299 -305 -318 0
-294 296 -299 306 319 0
-294 296 -299 306 -319 0
-294 296 -299 -306 320 0
-294 296 -299 -306 -320 0
-294 -296 300 307 321 0
-294 -296 300 307 -321 0
-294 -296 300 -307 322 0
-294 -296 300 -307 -322 0
-294 -296 -300 308 323 0
-294 -296 -300 308 -323 0
-294 -296 -300 -308 324 0
-294 -296 -300 -308 -324 0
325 326 328 332 340 0
325 326 328 332 -340 0
325 326 328 -332 341 0
325 326 328 -332 -341 0
325 326 -328 333 342 0
325 326 -328 333 -342 0
325 326 -328 -333 343 0
325 326 -328 -333 -343 0
325 -326 329 334 344 0
325 -326 329 334 -344 0
325 -326 329 -334 345 0
325 -326 329 -334 -345 0
325 -326 -329 335 346 0
325 -326 -329 335 -346 0
325 -326 -329 -335 347 0
325 -326 -329 -335 -347 0
-325 327 330 336 348 0
-325 327 330 336 -348 0
-325 327 330 -336 349 0
-325 327 330 -336 -349 0
-325 327 -330 337 350 0
-325 327 -330 337 -350 0
-325 327 -330 -337 351 0
-325 327 -330 -337 -351 0
-325 -327 331 338 352 0
-325 -327 331 338 -352 0
-325 -327 331 -338 353 0
-325 -327 331 -338 -353 0
-325 -327 -331 339 354 0
-325 -327 -331 339 -354 0
-325 -327 -331 -339 355 0
-325 -327 -331 -339 -355 0
356 357 359 363 371 0
356 357 359 363 -371 0
356 357 359 -363 372 0
356 357 359 -363 -372 0
356 357 -359 364 373 0
356 357 -359 364 -373 0
356 357 -359 -364 374 0
356 357 -359 -364 -374 0
356 -357 360 365 375 0
356 -357 360 365 -375 0
356 -357 360 -365 376 0
356 -357 360 -365 -376 0
356 -357 -360 366 377 0
356 -357 -360 366 -377 0
356 -357 -360 -366 378 0
356 -357 -360 -366 -378 0
-356 358 361 367 379 0
-356 358 361 367 -379 0
-356 358 361 -367 380 0
-356 358 361 -367 -380 0
-356 358 -361 368 381 0
-356 358 -361 368 -381 0
-356 358 -361 -368 382 0
-356 358 -361 -368 -382 0
-356 -358 362 369 383 0
-356 -358 362 369 -383 0
-356 -358 362 -369 384 0
-356 -358 362 -369 -384 0
-356 -358 -362 370 385 0
-356 -358 -362 370 -385 0
-356 -358 -362 -370 386 0
-356 -358 -362 -370 -386 0

